c Small WMC instance: 3 vars, 2 clauses.
c Formula: (x1 OR x2) AND (-x2 OR x3)
c Weights: w(x1)=(0.6, 0.4), w(x2)=(0.7, 0.3), w(x3)=(0.5, 0.5)
c
c Satisfying assignments and their literal-weight products:
c   x1=0, x2=1, x3=1 : 0.4 * 0.7 * 0.5 = 0.14
c   x1=1, x2=0, x3=0 : 0.6 * 0.3 * 0.5 = 0.09
c   x1=1, x2=0, x3=1 : 0.6 * 0.3 * 0.5 = 0.09
c   x1=1, x2=1, x3=1 : 0.6 * 0.7 * 0.5 = 0.21
c WMC = 0.14 + 0.09 + 0.09 + 0.21 = 0.53
p cnf 3 2
1 2 0
-2 3 0
w 1 0.6 0.4
w 2 0.7 0.3
w 3 0.5 0.5
